NAME : XML100_2344_12
DIMENSION : 101
NB_CLUSTERS : 4
CLUSTERING_ALG : KMeans
CLUSTERING_PARAMS : k(3)
CLUSTERS
1 0
2 1 3 4 5 6 8 10 14 15 16 17 18 20 21 24 25 26 27 29 30 31 32 33 35 37 38 39 40 42 43 44 45 46 47 48 50 51 52 54 55 57 58 59 60 61 62 64 65 67 70 71 72 74 75 77 78 80 81 83 84 86 87 88 89 91 93 95 96 99 100
3 2 7 11 12 28 34 41 49 53 66 73 76 82 85
4 9 13 19 22 23 36 56 63 68 69 79 90 92 94 97 98
EOF